benchmarks_CP/INST_36x36/45/inst36x36_45_13.dzn
S=6;
start=[|
12,	-1,	31,	20,	-1,	-1,	16,	-1,	-1,	33,	-1,	-1,	-1,	-1,	-1,	-1,	-1,	-1,	3,	9,	-1,	26,	19,	-1,	30,	36,	-1,	24,	35,	-1,	-1,	11,	22,	-1,	6,	-1|
14,	-1,	-1,	-1,	1,	-1,	-1,	23,	3,	12,	21,	11,	24,	4,	32,	26,	-1,	-1,	8,	15,	29,	-1,	16,	-1,	-1,	5,	-1,	31,	28,	-1,	35,	-1,	-1,	2,	-1,	13|
5,	-1,	32,	-1,	35,	24,	15,	-1,	-1,	-1,	-1,	-1,	-1,	-1,	31,	-1,	7,	-1,	36,	-1,	18,	-1,	-1,	-1,	-1,	-1,	-1,	-1,	-1,	19,	-1,	-1,	-1,	-1,	-1,	-1|
-1,	-1,	-1,	-1,	6,	34,	28,	-1,	-1,	-1,	8,	5,	-1,	-1,	29,	-1,	-1,	25,	22,	-1,	12,	35,	4,	-1,	-1,	23,	16,	-1,	-1,	3,	-1,	-1,	32,	20,	9,	-1|
-1,	-1,	-1,	7,	16,	-1,	-1,	19,	35,	-1,	-1,	13,	3,	5,	8,	-1,	22,	-1,	-1,	-1,	27,	20,	30,	6,	-1,	33,	-1,	-1,	-1,	34,	-1,	24,	23,	31,	-1,	-1|
18,	-1,	26,	3,	-1,	29,	6,	20,	-1,	-1,	-1,	24,	-1,	-1,	35,	16,	9,	-1,	-1,	-1,	-1,	2,	14,	-1,	-1,	8,	13,	17,	-1,	-1,	-1,	34,	-1,	-1,	-1,	-1|
-1,	-1,	25,	22,	9,	31,	-1,	-1,	16,	20,	-1,	-1,	2,	-1,	1,	30,	21,	-1,	17,	6,	5,	4,	-1,	-1,	36,	-1,	19,	-1,	13,	15,	26,	-1,	12,	-1,	-1,	-1|
-1,	-1,	-1,	5,	-1,	-1,	-1,	6,	-1,	-1,	36,	-1,	12,	19,	13,	-1,	-1,	-1,	28,	21,	-1,	-1,	26,	-1,	31,	3,	-1,	23,	-1,	30,	34,	-1,	-1,	-1,	-1,	-1|
-1,	13,	-1,	2,	28,	-1,	-1,	12,	-1,	21,	15,	29,	-1,	-1,	-1,	4,	10,	-1,	20,	19,	-1,	36,	-1,	-1,	-1,	27,	-1,	-1,	-1,	-1,	-1,	-1,	11,	24,	31,	-1|
-1,	20,	14,	30,	8,	-1,	5,	26,	28,	-1,	23,	34,	-1,	-1,	-1,	27,	-1,	16,	15,	-1,	-1,	9,	31,	32,	-1,	22,	-1,	-1,	17,	12,	-1,	-1,	-1,	36,	-1,	21|
-1,	-1,	15,	-1,	-1,	-1,	1,	-1,	11,	-1,	17,	-1,	31,	-1,	6,	34,	-1,	5,	-1,	-1,	-1,	-1,	2,	18,	-1,	21,	-1,	-1,	20,	-1,	-1,	-1,	-1,	13,	22,	4|
3,	-1,	-1,	21,	-1,	12,	8,	14,	-1,	-1,	-1,	30,	-1,	-1,	36,	17,	15,	-1,	-1,	-1,	13,	-1,	22,	-1,	-1,	29,	10,	2,	24,	-1,	1,	6,	-1,	-1,	-1,	-1|
24,	6,	9,	-1,	31,	-1,	3,	-1,	-1,	5,	-1,	-1,	-1,	-1,	-1,	-1,	18,	10,	33,	-1,	-1,	16,	-1,	-1,	-1,	-1,	8,	-1,	-1,	23,	27,	28,	-1,	-1,	-1,	-1|
-1,	-1,	13,	27,	-1,	-1,	19,	-1,	-1,	16,	6,	-1,	-1,	11,	-1,	-1,	-1,	-1,	-1,	-1,	28,	-1,	-1,	-1,	-1,	26,	-1,	-1,	-1,	35,	12,	-1,	-1,	10,	-1,	-1|
11,	-1,	-1,	-1,	-1,	7,	-1,	-1,	-1,	14,	2,	-1,	-1,	17,	-1,	-1,	-1,	15,	-1,	32,	36,	-1,	-1,	10,	-1,	-1,	4,	-1,	-1,	21,	-1,	-1,	31,	-1,	-1,	-1|
16,	-1,	36,	-1,	-1,	17,	-1,	11,	-1,	-1,	-1,	-1,	-1,	7,	-1,	24,	12,	-1,	-1,	35,	2,	3,	-1,	-1,	-1,	-1,	-1,	-1,	9,	28,	-1,	-1,	13,	-1,	18,	-1|
-1,	-1,	-1,	18,	19,	-1,	-1,	25,	20,	-1,	-1,	-1,	13,	-1,	-1,	-1,	-1,	-1,	9,	8,	7,	24,	-1,	-1,	32,	-1,	-1,	-1,	-1,	-1,	3,	-1,	-1,	11,	15,	6|
22,	-1,	10,	12,	15,	-1,	-1,	-1,	-1,	28,	-1,	-1,	-1,	29,	5,	8,	-1,	36,	-1,	-1,	25,	11,	34,	13,	17,	-1,	-1,	-1,	18,	-1,	-1,	30,	-1,	-1,	32,	-1|
-1,	31,	-1,	8,	-1,	-1,	36,	-1,	-1,	-1,	-1,	-1,	-1,	-1,	12,	21,	19,	-1,	10,	4,	1,	29,	-1,	2,	34,	7,	-1,	-1,	23,	17,	33,	-1,	14,	-1,	30,	15|
2,	1,	-1,	29,	-1,	-1,	-1,	-1,	-1,	19,	-1,	31,	30,	-1,	25,	-1,	-1,	18,	-1,	-1,	33,	8,	-1,	15,	28,	-1,	-1,	27,	-1,	5,	-1,	-1,	-1,	26,	11,	-1|
36,	7,	27,	-1,	11,	33,	-1,	21,	-1,	-1,	-1,	28,	1,	-1,	-1,	2,	-1,	26,	24,	-1,	6,	18,	35,	-1,	14,	-1,	-1,	-1,	15,	-1,	-1,	13,	5,	12,	4,	-1|
-1,	32,	-1,	19,	24,	18,	-1,	2,	17,	1,	22,	16,	-1,	15,	-1,	28,	-1,	-1,	-1,	-1,	20,	-1,	-1,	-1,	-1,	12,	31,	-1,	6,	11,	-1,	-1,	27,	34,	36,	-1|
35,	-1,	17,	-1,	-1,	15,	33,	-1,	-1,	-1,	12,	18,	16,	6,	-1,	-1,	5,	27,	-1,	11,	-1,	7,	-1,	31,	8,	30,	22,	26,	-1,	-1,	20,	2,	24,	-1,	-1,	-1|
-1,	-1,	-1,	-1,	12,	22,	11,	-1,	-1,	26,	14,	20,	-1,	13,	-1,	-1,	29,	-1,	-1,	-1,	9,	19,	17,	-1,	-1,	1,	-1,	-1,	36,	-1,	-1,	-1,	8,	6,	28,	-1|
-1,	-1,	-1,	36,	17,	-1,	-1,	-1,	-1,	-1,	-1,	-1,	-1,	-1,	-1,	3,	-1,	-1,	-1,	-1,	26,	14,	-1,	9,	12,	32,	15,	5,	-1,	27,	-1,	-1,	-1,	18,	24,	28|
-1,	-1,	-1,	-1,	-1,	5,	27,	-1,	24,	6,	28,	23,	-1,	35,	15,	22,	-1,	1,	7,	-1,	-1,	-1,	12,	36,	25,	17,	-1,	9,	19,	13,	-1,	21,	-1,	-1,	20,	-1|
27,	22,	-1,	-1,	-1,	4,	-1,	-1,	2,	-1,	-1,	19,	29,	28,	-1,	11,	-1,	33,	13,	20,	-1,	31,	24,	-1,	3,	-1,	-1,	21,	-1,	-1,	15,	-1,	-1,	32,	-1,	-1|
13,	3,	29,	-1,	21,	-1,	26,	-1,	14,	15,	-1,	-1,	-1,	18,	-1,	12,	-1,	7,	2,	-1,	-1,	-1,	33,	-1,	-1,	-1,	-1,	20,	-1,	8,	6,	22,	19,	-1,	17,	-1|
32,	19,	-1,	-1,	18,	-1,	-1,	-1,	-1,	-1,	16,	-1,	25,	20,	-1,	23,	36,	-1,	-1,	27,	-1,	-1,	-1,	-1,	-1,	31,	6,	22,	-1,	-1,	-1,	1,	30,	-1,	-1,	7|
7,	12,	-1,	15,	33,	25,	-1,	-1,	36,	29,	-1,	-1,	17,	9,	14,	13,	-1,	31,	-1,	5,	-1,	-1,	-1,	-1,	2,	18,	-1,	28,	1,	26,	-1,	-1,	-1,	27,	-1,	35|
9,	17,	11,	-1,	2,	-1,	-1,	16,	15,	-1,	-1,	-1,	14,	8,	-1,	-1,	-1,	-1,	26,	-1,	-1,	5,	-1,	-1,	-1,	13,	-1,	32,	22,	-1,	18,	23,	-1,	-1,	21,	-1|
8,	18,	-1,	-1,	-1,	21,	-1,	22,	-1,	-1,	5,	-1,	-1,	-1,	-1,	-1,	-1,	-1,	35,	-1,	-1,	-1,	-1,	-1,	-1,	-1,	-1,	14,	3,	-1,	28,	33,	16,	-1,	-1,	-1|
28,	-1,	34,	-1,	13,	27,	-1,	36,	8,	-1,	-1,	3,	-1,	-1,	7,	29,	-1,	24,	-1,	16,	-1,	-1,	-1,	-1,	35,	-1,	-1,	-1,	-1,	-1,	32,	-1,	-1,	17,	-1,	-1|
-1,	-1,	12,	26,	5,	14,	-1,	9,	10,	-1,	-1,	-1,	-1,	-1,	-1,	15,	-1,	-1,	-1,	13,	8,	22,	-1,	33,	19,	20,	-1,	-1,	29,	-1,	-1,	36,	-1,	4,	-1,	-1|
19,	-1,	-1,	35,	-1,	-1,	-1,	32,	-1,	-1,	-1,	12,	-1,	-1,	28,	25,	-1,	22,	-1,	24,	10,	-1,	-1,	4,	26,	-1,	17,	-1,	8,	-1,	11,	5,	-1,	-1,	7,	-1|
-1,	-1,	-1,	6,	-1,	30,	-1,	28,	19,	31,	-1,	1,	9,	-1,	23,	-1,	13,	21,	-1,	-1,	-1,	-1,	-1,	-1,	18,	-1,	36,	-1,	-1,	4,	8,	-1,	-1,	-1,	-1,	-1|];
